c2_10_10

VEHICLE
NUMBER   CAPACITY
250     700

CUSTOMER
CUST NO. XCOORD.  YCOORD.  DEMAND  READY TIME DUE DATE  SERVICE TIME

0   250    250     0     0    3914     0
156 13 266 20 844 1724 90
22 19 297 20 1922 2802 90
568 16 285 30 2132 3012 90
212 32 247 20 442 1322 90
978 11 269 10 750 1630 90
483 26 269 30 645 1525 90
619 22 283 30 953 1833 90
710 16 281 10 2316 3196 90
6 25 293 20 2604 3484 90
109 32 256 10 541 1421 90
304 16 280 10 2407 3287 90
737 23 306 20 1822 2702 90
92 29 282 10 1050 1930 90
39 17 283 20 2224 3104 90
154 25 290 30 2511 3391 90
790 34 279 20 1146 2026 90
950 5 296 10 2026 2906 90
